set P :=
1 2 3 4 5 6 7 8 9 10 11 12 13 14 15 16 17 18 19 20 21 22 23 24 25 26 27 28 29 30 31 32 33 34 35 36 37 38 39 40 41 42 43 44 45 46 47 48 49 50 51 52 53 54 55 56 57 58 59 60
;

param: WG lp wp hp :=
   1 40.0 13.0 3.0 6.5
   2 40.0 13.0 3.0 6.5
   3 40.0 13.0 3.0 6.5
   4 40.0 13.0 3.0 6.5
   5 40.0 13.0 3.0 6.5
   6 40.0 13.0 3.0 6.5
   7 40.0 13.0 3.0 6.5
   8 40.0 13.0 3.0 6.5
   9 40.0 13.0 3.0 6.5
   10 40.0 13.0 3.0 6.5
   11 40.0 13.0 3.0 6.5
   12 40.0 13.0 3.0 6.5
   13 40.0 13.0 3.0 6.5
   14 40.0 13.0 3.0 6.5
   15 40.0 13.0 3.0 6.5
   16 40.0 13.0 3.0 6.5
   17 40.0 13.0 3.0 6.5
   18 40.0 13.0 3.0 6.5
   19 40.0 13.0 3.0 6.5
   20 40.0 13.0 3.0 6.5
   21 40.0 13.0 3.0 6.5
   22 40.0 13.0 3.0 6.5
   23 40.0 13.0 3.0 6.5
   24 40.0 13.0 3.0 6.5
   25 40.0 13.0 3.0 6.5
   26 40.0 13.0 3.0 6.5
   27 40.0 13.0 3.0 6.5
   28 40.0 13.0 3.0 6.5
   29 40.0 13.0 3.0 6.5
   30 40.0 13.0 3.0 6.5
   31 30.0 13.5 7.3 2.5
   32 30.0 13.5 7.3 2.5
   33 30.0 13.5 7.3 2.5
   34 30.0 13.5 7.3 2.5
   35 30.0 13.5 7.3 2.5
   36 30.0 13.5 7.3 2.5
   37 30.0 13.5 7.3 2.5
   38 30.0 13.5 7.3 2.5
   39 30.0 13.5 7.3 2.5
   40 30.0 13.5 7.3 2.5
   41 40.0 8.0 9.0 2.0
   42 40.0 8.0 9.0 2.0
   43 40.0 8.0 9.0 2.0
   44 40.0 8.0 9.0 2.0
   45 40.0 8.0 9.0 2.0
   46 40.0 8.0 9.0 2.0
   47 40.0 8.0 9.0 2.0
   48 40.0 8.0 9.0 2.0
   49 40.0 8.0 9.0 2.0
   50 40.0 8.0 9.0 2.0
   51 12.0 9.2 2.4 1.8
   52 12.0 9.2 2.4 1.8
   53 12.0 9.2 2.4 1.8
   54 12.0 9.2 2.4 1.8
   55 12.0 9.2 2.4 1.8
   56 12.0 9.2 2.4 1.8
   57 12.0 9.2 2.4 1.8
   58 12.0 9.2 2.4 1.8
   59 12.0 9.2 2.4 1.8
   60 12.0 9.2 2.4 1.8
;

set B :=
1 2 3 4 5 6 7 8 9 10 11 12 13 14 15 16 17 18 19 20 21 22 23 24 25 26 27 28 29 30 31 32 33 34 35 36 37 38 39 40
;

param: LB WB HB CB alpha :=
   1 28 15 15 6300 32
   2 28 15 15 6300 32
   3 28 15 15 6300 32
   4 28 15 15 6300 32
   5 28 15 15 6300 32
   6 28 15 15 6300 32
   7 28 15 15 6300 32
   8 28 15 15 6300 32
   9 28 15 15 6300 32
   10 28 15 15 6300 32
   11 42 32 26 34944 94
   12 42 32 26 34944 94
   13 42 32 26 34944 94
   14 42 32 26 34944 94
   15 42 32 26 34944 94
   16 42 32 26 34944 94
   17 42 32 26 34944 94
   18 42 32 26 34944 94
   19 42 32 26 34944 94
   20 42 32 26 34944 94
   21 45.7 45.7 40.6 84793 156
   22 45.7 45.7 40.6 84793 156
   23 45.7 45.7 40.6 84793 156
   24 45.7 45.7 40.6 84793 156
   25 45.7 45.7 40.6 84793 156
   26 45.7 45.7 40.6 84793 156
   27 45.7 45.7 40.6 84793 156
   28 45.7 45.7 40.6 84793 156
   29 45.7 45.7 40.6 84793 156
   30 45.7 45.7 40.6 84793 156
   31 61 46 61 171166 469
   32 61 46 61 171166 469
   33 61 46 61 171166 469
   34 61 46 61 171166 469
   35 61 46 61 171166 469
   36 61 46 61 171166 469
   37 61 46 61 171166 469
   38 61 46 61 171166 469
   39 61 46 61 171166 469
   40 61 46 61 171166 469
;


param M     := 1000000; #large constant
param alpha_supp := 1;# minimum percentage of its bottom face supported by other items' top faces
